\* General Blend Problem *\
Minimize
Total_Cost_of_Ingredients_per_can: 0.5 Ingr_Rice + 0.5 Ingr_Tofu
Subject To
Fibre: 0.5 Ingr_Rice + 0.2 Ingr_Tofu >= 10
Percentages_sum: Ingr_Rice + Ingr_Tofu = 100
Protein: 0.2 Ingr_Rice + 0.5 Ingr_Tofu >= 5
End
